NAME : pairopt
TYPE : ACVRP
DIMENSION : 5
EDGE_WEIGHT_TYPE : EXPLICIT
EDGE_WEIGHT_FORMAT : FULL_MATRIX
CAPACITY : 710
VEHICLES : 2
EDGE_WEIGHT_SECTION
100000 -100000 -100000 100000 100000 
100000 100000 1000000 2024 2192 
100000 1000000 100000 -387 164 
0 0 0 100000 268 
0 0 0 268 100000 
DEMAND_SECTION
1 0
2 0
3 0
4 625
5 321
DEPOT_SECTION
1
EOF